(set-logic QF_S)
(declare-const x String)
(assert (str.in.re x (re.inter (re.+  (re.union  (str.to.re "\u{20}")  (str.to_re "\u{09}")) )  (re.++ (re.+  (re.union  (str.to.re "\u{20}")  (str.to_re "\u{09}")) ) (re.+ (re.comp  (str.to.re "\u{23}")) )) (re.+ (re.comp  (str.to.re "\u{23}")) ) )))
(check-sat)
(get-model)